(set-logic QF_S)
(declare-fun var0 () String)
(assert (RegexIn var0 (RegexConcat (RegexStar (RegexPlus (Str2Reg "000"))) (RegexConcat (RegexPlus (RegexPlus (Str2Reg "1"))) (RegexConcat (RegexStar (RegexPlus (Str2Reg "2"))) (RegexConcat (RegexUnion (RegexPlus (Str2Reg "33")) (RegexPlus (Str2Reg "4"))) (RegexConcat (RegexPlus (RegexUnion (Str2Reg "55") (Str2Reg "66"))) (RegexConcat (RegexPlus (RegexStar (Str2Reg "77"))) (RegexConcat (RegexStar (RegexUnion (Str2Reg "888") (Str2Reg "9"))) (RegexConcat (RegexPlus (RegexStar (Str2Reg "aa"))) (RegexConcat (RegexPlus (RegexUnion (Str2Reg "b") (Str2Reg "cc"))) (RegexConcat (RegexPlus (RegexUnion (Str2Reg "ddd") (Str2Reg "e"))) (RegexConcat (RegexUnion (RegexStar (Str2Reg "f")) (RegexStar (Str2Reg "g"))) (RegexConcat (RegexPlus (RegexPlus (Str2Reg "h"))) (RegexConcat (RegexStar (RegexStar (Str2Reg "iii"))) (RegexConcat (RegexUnion (RegexUnion (Str2Reg "jj") (Str2Reg "kkk")) (RegexUnion (Str2Reg "lll") (Str2Reg "mmm"))) (RegexConcat (RegexUnion (RegexUnion (Str2Reg "nnn") (Str2Reg "oo")) (RegexUnion (Str2Reg "p") (Str2Reg "qq"))) (RegexConcat (RegexStar (RegexPlus (Str2Reg "r"))) (RegexConcat (RegexUnion (RegexUnion (Str2Reg "ss") (Str2Reg "t")) (RegexUnion (Str2Reg "u") (Str2Reg "v"))) (RegexConcat (RegexPlus (RegexUnion (Str2Reg "w") (Str2Reg "x"))) (RegexConcat (RegexPlus (RegexPlus (Str2Reg "yy"))) (RegexConcat (RegexUnion (RegexStar (Str2Reg "zz")) (RegexStar (Str2Reg "AAA"))) (RegexConcat (RegexUnion (RegexStar (Str2Reg "B")) (RegexStar (Str2Reg "CCC"))) (RegexConcat (RegexUnion (RegexUnion (Str2Reg "DD") (Str2Reg "E")) (RegexUnion (Str2Reg "FFF") (Str2Reg "GG"))) (RegexConcat (RegexStar (RegexStar (Str2Reg "HHH"))) (RegexConcat (RegexUnion (RegexPlus (Str2Reg "I")) (RegexPlus (Str2Reg "JJ"))) (RegexConcat (RegexStar (RegexUnion (Str2Reg "K") (Str2Reg "L"))) (RegexConcat (RegexPlus (RegexUnion (Str2Reg "MM") (Str2Reg "N"))) (RegexConcat (RegexUnion (RegexPlus (Str2Reg "OO")) (RegexPlus (Str2Reg "PPP"))) (RegexConcat (RegexPlus (RegexUnion (Str2Reg "QQQ") (Str2Reg "R"))) (RegexConcat (RegexUnion (RegexUnion (Str2Reg "SSS") (Str2Reg "TTT")) (RegexUnion (Str2Reg "UUU") (Str2Reg "VVV"))) (RegexConcat (RegexStar (RegexStar (Str2Reg "WWW"))) (RegexConcat (RegexPlus (RegexPlus (Str2Reg "XX"))) (RegexConcat (RegexUnion (RegexPlus (Str2Reg "Y")) (RegexPlus (Str2Reg "ZZZ"))) (RegexConcat (RegexPlus (RegexUnion (Str2Reg "!!") (Str2Reg "\"\"\""))) (RegexConcat (RegexUnion (RegexStar (Str2Reg "#")) (RegexStar (Str2Reg "$$"))) (RegexConcat (RegexPlus (RegexUnion (Str2Reg "%%%") (Str2Reg "&&"))) (RegexConcat (RegexStar (RegexStar (Str2Reg "'''"))) (RegexConcat (RegexUnion (RegexStar (Str2Reg "(((")) (RegexStar (Str2Reg ")"))) (RegexConcat (RegexPlus (RegexPlus (Str2Reg "**"))) (RegexConcat (RegexPlus (RegexUnion (Str2Reg "++") (Str2Reg ",,,"))) (RegexConcat (RegexStar (RegexPlus (Str2Reg "---"))) (RegexUnion (RegexStar (Str2Reg "..")) (RegexStar (Str2Reg "//")))))))))))))))))))))))))))))))))))))))))))))
(assert (not (RegexIn var0 (RegexConcat (RegexUnion (RegexPlus (Str2Reg "000")) (RegexPlus (Str2Reg "1"))) (RegexConcat (RegexUnion (RegexPlus (Str2Reg "222")) (RegexPlus (Str2Reg "3"))) (RegexConcat (RegexStar (RegexStar (Str2Reg "444"))) (RegexConcat (RegexUnion (RegexStar (Str2Reg "55")) (RegexStar (Str2Reg "666"))) (RegexConcat (RegexUnion (RegexPlus (Str2Reg "77")) (RegexPlus (Str2Reg "888"))) (RegexConcat (RegexPlus (RegexStar (Str2Reg "9"))) (RegexConcat (RegexPlus (RegexStar (Str2Reg "aaa"))) (RegexConcat (RegexPlus (RegexStar (Str2Reg "b"))) (RegexConcat (RegexPlus (RegexPlus (Str2Reg "c"))) (RegexConcat (RegexPlus (RegexUnion (Str2Reg "ddd") (Str2Reg "e"))) (RegexConcat (RegexStar (RegexStar (Str2Reg "ff"))) (RegexConcat (RegexPlus (RegexUnion (Str2Reg "ggg") (Str2Reg "hh"))) (RegexConcat (RegexStar (RegexPlus (Str2Reg "ii"))) (RegexConcat (RegexUnion (RegexUnion (Str2Reg "jj") (Str2Reg "k")) (RegexUnion (Str2Reg "ll") (Str2Reg "mm"))) (RegexConcat (RegexStar (RegexStar (Str2Reg "n"))) (RegexConcat (RegexStar (RegexPlus (Str2Reg "oo"))) (RegexConcat (RegexPlus (RegexUnion (Str2Reg "pp") (Str2Reg "q"))) (RegexConcat (RegexPlus (RegexUnion (Str2Reg "rrr") (Str2Reg "sss"))) (RegexConcat (RegexUnion (RegexPlus (Str2Reg "tt")) (RegexPlus (Str2Reg "uu"))) (RegexConcat (RegexStar (RegexPlus (Str2Reg "vv"))) (RegexConcat (RegexPlus (RegexPlus (Str2Reg "www"))) (RegexConcat (RegexStar (RegexStar (Str2Reg "x"))) (RegexConcat (RegexUnion (RegexPlus (Str2Reg "y")) (RegexPlus (Str2Reg "zz"))) (RegexConcat (RegexUnion (RegexStar (Str2Reg "AA")) (RegexStar (Str2Reg "BBB"))) (RegexConcat (RegexUnion (RegexPlus (Str2Reg "C")) (RegexPlus (Str2Reg "DDD"))) (RegexConcat (RegexPlus (RegexStar (Str2Reg "EEE"))) (RegexConcat (RegexUnion (RegexUnion (Str2Reg "FFF") (Str2Reg "G")) (RegexUnion (Str2Reg "HHH") (Str2Reg "II"))) (RegexConcat (RegexStar (RegexUnion (Str2Reg "JJ") (Str2Reg "KKK"))) (RegexConcat (RegexPlus (RegexPlus (Str2Reg "L"))) (RegexConcat (RegexPlus (RegexPlus (Str2Reg "M"))) (RegexConcat (RegexStar (RegexStar (Str2Reg "N"))) (RegexConcat (RegexPlus (RegexPlus (Str2Reg "OOO"))) (RegexConcat (RegexPlus (RegexStar (Str2Reg "PP"))) (RegexConcat (RegexStar (RegexStar (Str2Reg "Q"))) (RegexConcat (RegexUnion (RegexUnion (Str2Reg "RRR") (Str2Reg "SS")) (RegexUnion (Str2Reg "TT") (Str2Reg "UU"))) (RegexConcat (RegexPlus (RegexUnion (Str2Reg "V") (Str2Reg "WW"))) (RegexConcat (RegexStar (RegexStar (Str2Reg "XXX"))) (RegexConcat (RegexPlus (RegexStar (Str2Reg "Y"))) (RegexConcat (RegexStar (RegexStar (Str2Reg "ZZZ"))) (RegexConcat (RegexStar (RegexUnion (Str2Reg "!!") (Str2Reg "\"\"\""))) (RegexPlus (RegexPlus (Str2Reg "#"))))))))))))))))))))))))))))))))))))))))))))))
(check-sat)